c ---- [ banner ] ------------------------------------------------------------
c
c Kissat SAT Solver
c 
c Copyright (c) 2021-2024 Armin Biere University of Freiburg
c Copyright (c) 2019-2021 Armin Biere Johannes Kepler University Linz
c 
c Version 4.0.1 43f02cf3e992cb44653b35e5cb26f93281552ae0
c gcc (Ubuntu 13.2.0-23ubuntu4) 13.2.0 -W -Wall -O3 -DNDEBUG
c Thu Sep 12 12:27:46 CEST 2024 Linux abryzen9 6.8.0-41-generic x86_64
c
c ---- [ parsing ] -----------------------------------------------------------
c
c opened and reading DIMACS file:
c
c   /data/artifact/AMulet2.0_artifact/exp4/cnf_sopb_64/64_64_U1_DT_KS_Multgen_sopb.cnf
c
c parsed 'p cnf 28882 129537' header
c closing input after reading 2604557 bytes (2 MB)
c finished parsing after 0.02 seconds
c
c ---- [ options ] -----------------------------------------------------------
c
c --stable=0                       (different from default '1')
c
c ---- [ solving ] -----------------------------------------------------------
c
c  seconds switched rate     size/glue tier1  binary           remaining
c         MB reductions conflicts size  tier2     irredundant
c          level restarts redundant glue  trail           variables
c
c *  0.02 10 0 0 0  0 0   0   0 0.0 0 0 0 0 0% 13100 116435 28879 100%
c (  0.04 12 0 0 0  0 0   0   0 0.0 0 0 0 0 0% 13100 116435 28879 100%
c .  0.04 12 0 0 0  0 0   0   0 0.0 0 0 0 0 0% 13096 116435 28879 100%
c c  0.10 17 0 0 0  0 0   0   0 0.0 0 0 0 0 0% 17278 108139 26805 93%
c d  0.10 17 0 0 0  0 0   0   0 0.0 0 0 0 0 0% 13130 108139 26805 93%
c =  0.14 17 0 0 0  0 0   0   0 0.0 0 0 0 0 0% 13284 108137 26728 93%
c d  0.15 17 0 0 0  0 0   0   0 0.0 0 0 0 0 0% 13130 108137 26728 93%
c f  0.24 17 0 0 0  0 0   0   0 0.0 0 0 0 0 0% 18314 99875 29705 103%
c e  0.40 23 0 0 0  0 0   0   0 0.0 0 0 0 0 0% 11509 108653 20741 72%
c )  0.40 23 0 0 0  0 0   0   0 0.0 0 0 0 0 0% 11509 108653 20741 72%
c {  0.42 23 0 0 0  0 0   0   0 0.0 0 0 2 6 0% 11509 108653 20741 72%
c -  0.62 24 330 0 1 238 39 1000 736 2.8 20 7 4 12 24% 11545 108653 20741 72%
c -  0.72 24 302 0 2 294 29 2001 1258 3.0 20 7 3 11 22% 11588 108653 20741 72%
c c  0.88 22 266 0 2 370 28 2503 1679 3.0 20 7 3 12 23% 11620 108546 20711 72%
c d  0.89 22 266 0 2 370 28 2503 1630 3.0 20 7 3 12 23% 11556 108546 20711 72%
c u  0.90 22 266 0 2 370 28 2503 1351 3.0 20 7 3 12 23% 11567 108546 20711 72%
c v  0.92 22 266 0 2 370 28 2503 1122 3.0 20 7 3 12 23% 11568 108546 20711 72%
c w  0.93 23 266 0 2 370 28 2503 1120 3.0 20 7 3 12 23% 11568 108546 20711 72%
c x  0.94 23 266 0 2 370 28 2503 1120 3.0 20 7 3 12 23% 11568 108484 20711 72%
c =  1.00 23 266 0 2 370 28 2503 1120 3.0 20 7 3 12 23% 11638 108482 20676 72%
c
c  seconds   switched   rate       size/glue tier1     binary           remaining
c         MB  reductions conflicts       size  tier2       irredundant
c           level restarts    redundant    glue    trail           variables
c
c d  1.01 23 266 0 2 370 28 2503 1119 3.0 20 7 3 12 23% 11564 108482 20674 72%
c t  1.02 23 266 0 2 370 28 2503 1119 3.0 20 7 3 12 23% 11549 108482 20674 72%
c f  1.05 23 266 0 2 370 28 2503 1119 3.0 20 7 3 12 23% 12310 107002 21359 74%
c c  1.12 23 266 0 2 370 28 2503 1119 3.0 20 7 3 12 23% 12315 106992 21358 74%
c d  1.13 23 266 0 2 370 28 2503 1119 3.0 20 7 3 12 23% 12313 106992 21358 74%
c u  1.14 23 266 0 2 370 28 2503 1096 3.0 20 7 3 12 23% 12313 106992 21358 74%
c v  1.16 23 266 0 2 370 28 2503 1045 3.0 20 7 3 12 23% 12313 106992 21358 74%
c w  1.18 23 266 0 2 370 28 2503 1040 3.0 20 7 3 12 23% 12313 106992 21358 74%
c x  1.21 23 266 0 2 370 28 2503 1040 3.0 20 7 3 12 23% 12313 106951 21358 74%
c =  1.29 23 266 0 2 370 28 2503 1040 3.0 20 7 3 12 23% 12539 106951 21245 74%
c d  1.30 23 266 0 2 370 28 2503 1039 3.0 20 7 3 12 23% 12270 106951 21245 74%
c f  1.34 23 266 0 2 370 28 2503 1039 3.0 20 7 3 12 23% 13534 105012 21877 76%
c -  1.68 24 288 0 3 528 33 3415 1520 3.7 27 7 3 12 24% 13579 105012 21877 76%
c -  2.17 24 289 0 4 680 30 5148 2543 3.6 25 7 3 11 24% 13672 105012 21877 76%
c -  2.80 24 268 0 5 874 30 7150 3615 3.6 25 7 3 12 26% 13743 105012 21877 76%
c d  2.94 24 257 0 5 910 29 7711 3865 3.6 24 7 3 12 26% 13644 105012 21798 75%
c u  2.98 24 257 0 5 910 29 7711 3251 3.6 24 7 3 12 26% 13661 105012 21798 75%
c v  3.03 24 257 0 5 910 29 7711 2927 3.6 24 7 3 12 26% 13662 105012 21798 75%
c w  3.07 24 257 0 5 910 29 7711 2919 3.6 24 7 3 12 26% 13662 105012 21798 75%
c =  3.23 24 257 0 5 910 29 7711 2919 3.6 24 7 3 12 26% 14272 105012 21493 74%
c
c  seconds   switched   rate       size/glue tier1     binary           remaining
c         MB  reductions conflicts       size  tier2       irredundant
c           level restarts    redundant    glue    trail           variables
c
c d  3.24 24 257 0 5 910 29 7711 2894 3.6 24 7 3 12 26% 13503 105012 21492 74%
c t  3.26 24 257 0 5 910 29 7711 2894 3.6 24 7 3 12 26% 13499 105012 21492 74%
c f  3.32 24 257 0 5 910 29 7711 2894 3.6 24 7 3 12 26% 14439 103585 21962 76%
c u  3.43 24 257 0 5 910 29 7711 2814 3.6 24 7 3 12 26% 14440 103585 21962 76%
c v  3.45 24 257 0 5 910 29 7711 2741 3.6 24 7 3 12 26% 14440 103585 21962 76%
c w  3.48 24 257 0 5 910 29 7711 2736 3.6 24 7 3 12 26% 14441 103585 21962 76%
c x  3.54 24 257 0 5 910 29 7711 2736 3.6 24 7 3 12 26% 14441 103162 21962 76%
c =  3.69 24 257 0 5 910 29 7711 2736 3.6 24 7 3 12 26% 15065 103162 21650 75%
c d  3.70 24 257 0 5 910 29 7711 2727 3.6 24 7 3 12 26% 14253 103162 21650 75%
c t  3.72 24 257 0 5 910 29 7711 2727 3.6 24 7 3 12 26% 14230 103162 21650 75%
c f  3.78 24 257 0 5 910 29 7711 2727 3.6 24 7 3 12 26% 16519 99721 22796 79%
c -  4.21 24 272 0 6 1044 28 9386 3602 3.7 25 7 3 11 26% 16567 99721 22796 79%
c o  4.33 24 266 0 6 1072 27 10125 4187 3.6 24 7 3 11 26% 16601 99721 22796 79%
c -  4.85 24 286 0 7 1207 27 11836 5017 3.9 26 7 3 11 26% 16654 99721 22796 79%
c s  5.15 24 288 0 7 1285 28 12514 5588 4.0 27 7 3 11 26% 16681 97676 22796 79%
c e  5.29 24 288 0 7 1285 28 12514 5588 4.0 27 7 3 11 26% 15602 98423 21886 76%
c 2  5.29 24 288 0 7 1285 28 12514 5588 4.0 27 7 3 11 26% 15597 98423 21886 76%
c s  5.30 24 288 0 7 1285 28 12514 5588 4.0 27 7 3 11 26% 15618 97693 21886 76%
c e  5.33 24 288 0 7 1285 28 12514 5588 4.0 27 7 3 11 26% 15326 97910 21742 75%
c ^  5.33 24 288 0 7 1285 28 12514 5588 4.0 27 7 3 11 26% 15326 97910 21742 75%
c
c  seconds   switched    rate        size/glue tier1     binary          remaining
c         MB  reductions   conflicts       size  tier2       irredundant
c           level  restarts     redundant    glue    trail          variables
c
c -  6.08 24 295 0 8 1490 29 14481 5815 4.1 29 7 2 10 27% 15366 97910 21742 75%
c d  6.67 24 312 0 8 1655 30 15793 6988 4.3 31 7 2 10 27% 15000 97910 21514 74%
c u  6.72 24 312 0 8 1655 30 15793 6152 4.3 31 7 2 10 27% 15009 97910 21514 74%
c v  6.79 24 312 0 8 1655 30 15793 5163 4.3 31 7 2 10 27% 15011 97910 21514 74%
c w  6.90 24 312 0 8 1655 30 15793 5162 4.3 31 7 2 10 27% 15011 97910 21514 74%
c x  6.95 24 312 0 8 1655 30 15793 5162 4.3 31 7 2 10 27% 15011 97355 21514 74%
c =  7.22 24 312 0 8 1655 30 15793 5162 4.3 31 7 2 10 27% 15877 97355 21081 73%
c d  7.24 24 312 0 8 1655 30 15793 5086 4.3 31 7 2 10 27% 14889 97355 21078 73%
c t  7.26 24 312 0 8 1655 30 15793 5086 4.3 31 7 2 10 27% 14777 97355 21078 73%
c f  7.34 24 312 0 8 1655 30 15793 5086 4.3 31 7 2 10 27% 14922 96967 21187 73%
c u  7.39 24 312 0 8 1655 30 15793 4872 4.3 31 7 2 10 27% 14923 96967 21187 73%
c v  7.44 24 312 0 8 1655 30 15793 4758 4.3 31 7 2 10 27% 14923 96967 21187 73%
c w  7.58 24 312 0 8 1655 30 15793 4737 4.3 31 7 2 10 27% 14923 96967 21187 73%
c x  7.62 24 312 0 8 1655 30 15793 4735 4.3 31 7 2 10 27% 14923 95824 21187 73%
c =  7.90 24 312 0 8 1655 30 15793 4735 4.3 31 7 2 10 27% 17159 95824 20069 69%
c d  7.91 24 312 0 8 1655 30 15793 4706 4.3 31 7 2 10 27% 13977 95824 20069 69%
c t  7.94 24 312 0 8 1655 30 15793 4706 4.3 31 7 2 10 27% 13967 95824 20069 69%
c f  7.98 24 312 0 8 1655 30 15793 4706 4.3 31 7 2 10 27% 13971 95816 20071 69%
c -  8.37 25 315 0 9 1767 30 17309 5269 4.3 30 7 2 10 27% 14000 95816 20071 69%
c o  8.92 25 312 0 9 1963 29 20125 7689 4.2 29 7 2 10 27% 14059 95814 20071 69%
c
c  seconds   switched     rate        size/glue tier1     binary          remaining
c         MB   reductions   conflicts       size  tier2       irredundant
c           level   restarts     redundant    glue    trail          variables
c
c -  9.01 25 312 0 10 1999 29 20309 6902 4.3 31 7 2 10 27% 14063 95814 20071 69%
c -  9.83 25 322 0 11 2297 30 23473 8502 4.3 33 8 2 9 27% 14114 95814 20071 69%
c s 10.18 25 319 0 11 2403 29 25021 9876 4.3 32 7 2 9 27% 14139 91741 20071 69%
c e 10.31 25 319 0 11 2403 29 25021 9876 4.3 32 7 2 9 27% 10602 96074 18146 63%
c s 10.33 25 319 0 11 2403 29 25021 9876 4.3 32 7 2 9 27% 10611 95652 18146 63%
c e 10.35 25 319 0 11 2403 29 25021 9876 4.3 32 7 2 9 27% 10523 95754 18107 63%
c ^ 10.35 25 319 0 11 2403 29 25021 9876 4.3 32 7 2 9 27% 10523 95754 18107 63%
c - 10.74 25 305 0 12 2538 29 26790 8694 4.3 32 7 2 9 27% 10570 95754 18107 63%
c c 10.83 25 304 0 12 2561 29 26922 8815 4.3 32 7 2 9 27% 10635 95429 18059 63%
c d 10.84 25 304 0 12 2561 29 26922 8771 4.3 32 7 2 9 27% 10393 95429 17972 62%
c u 10.87 25 304 0 12 2561 29 26922 7676 4.3 32 7 2 9 27% 10412 95429 17972 62%
c v 10.93 25 304 0 12 2561 29 26922 6737 4.3 32 7 2 9 27% 10413 95429 17972 62%
c w 10.96 25 304 0 12 2561 29 26922 6735 4.3 32 7 2 9 27% 10413 95429 17972 62%
c x 11.07 25 304 0 12 2561 29 26922 6721 4.3 32 7 2 9 27% 10414 94287 17972 62%
c = 11.35 25 304 0 12 2561 29 26922 6721 4.3 32 7 2 9 27% 13030 94285 16664 58%
c d 11.36 25 304 0 12 2561 29 26922 6576 4.3 32 7 2 9 27% 10292 94285 16664 58%
c t 11.38 25 304 0 12 2561 29 26922 6576 4.3 32 7 2 9 27% 10285 94285 16664 58%
c f 11.47 25 304 0 12 2561 29 26922 6576 4.3 32 7 2 9 27% 10391 93985 16722 58%
c u 11.54 25 304 0 12 2561 29 26922 6245 4.3 32 7 2 9 27% 10396 93985 16722 58%
c v 11.58 25 304 0 12 2561 29 26922 6123 4.3 32 7 2 9 27% 10396 93985 16722 58%
c
c  seconds   switched     rate        size/glue tier1    binary          remaining
c         MB   reductions   conflicts       size  tier2      irredundant
c           level   restarts     redundant    glue   trail          variables
c
c w 11.60 25 304 0 12 2561 29 26922 6122 4.3 32 7 2 9 27% 10396 93985 16722 58%
c x 11.74 25 304 0 12 2561 29 26922 6122 4.3 32 7 2 9 27% 10396 88586 16722 58%
c = 12.04 25 304 0 12 2561 29 26922 6122 4.3 32 7 2 9 27% 11354 88586 16243 56%
c d 12.04 25 304 0 12 2561 29 26922 6097 4.3 32 7 2 9 27% 10382 88586 16243 56%
c f 12.10 25 304 0 12 2561 29 26922 6097 4.3 32 7 2 9 27% 10386 88576 16245 56%
c - 12.71 25 311 0 13 2765 28 30254 8090 4.1 30 7 2 9 27% 10414 88576 16245 56%
c - 13.30 25 295 0 14 2940 27 33859 9872 3.9 28 7 2 8 26% 10497 88576 16245 56%
c - 14.00 25 290 0 15 3172 26 37600 11531 3.8 27 7 2 8 25% 10582 88576 16245 56%
c o 14.39 25 295 0 15 3306 26 40225 13771 3.8 26 7 2 8 25% 10631 88576 16245 56%
c c 14.70 25 294 0 15 3383 26 41248 14709 3.7 26 7 2 8 25% 10733 87921 16120 56%
c d 14.71 25 294 0 15 3383 26 41248 14364 3.7 26 7 2 8 25% 10483 87921 16120 56%
c u 14.78 25 294 0 15 3383 26 41248 12191 3.7 26 7 2 8 25% 10504 87921 16120 56%
c v 14.85 25 294 0 15 3383 26 41248 11605 3.7 26 7 2 8 25% 10504 87921 16120 56%
c w 14.90 25 294 0 15 3383 26 41248 11605 3.7 26 7 2 8 25% 10504 87921 16120 56%
c x 14.97 25 294 0 15 3383 26 41248 11602 3.7 26 7 2 8 25% 10504 84533 16120 56%
c = 15.19 25 294 0 15 3383 26 41248 11602 3.7 26 7 2 8 25% 10528 84533 16108 56%
c d 15.20 25 294 0 15 3383 26 41248 11575 3.7 26 7 2 8 25% 10495 84533 16106 56%
c t 15.22 25 294 0 15 3383 26 41248 11575 3.7 26 7 2 8 25% 10485 84533 16106 56%
c f 15.24 25 294 0 15 3383 26 41248 11575 3.7 26 7 2 8 25% 10489 84523 16108 56%
c c 15.31 25 294 0 15 3383 26 41248 11547 3.7 26 7 2 8 25% 10494 84499 16105 56%
c
c  seconds   switched     rate         size/glue tier1    binary          remaining
c         MB   reductions   conflicts        size  tier2      irredundant
c           level   restarts      redundant    glue   trail          variables
c
c d 15.32 25 294 0 15 3383 26 41248 11547 3.7 26 7 2 8 25% 10488 84499 16105 56%
c u 15.38 25 294 0 15 3383 26 41248 11140 3.7 26 7 2 8 25% 10494 84499 16105 56%
c v 15.45 25 294 0 15 3383 26 41248 10304 3.7 26 7 2 8 25% 10494 84499 16105 56%
c w 15.52 25 294 0 15 3383 26 41248 10303 3.7 26 7 2 8 25% 10494 84499 16105 56%
c x 15.58 25 294 0 15 3383 26 41248 10303 3.7 26 7 2 8 25% 10494 83121 16105 56%
c = 15.80 25 294 0 15 3383 26 41248 10303 3.7 26 7 2 8 25% 10690 83121 16007 55%
c d 15.80 25 294 0 15 3383 26 41248 10264 3.7 26 7 2 8 25% 10490 83121 16007 55%
c t 15.83 25 294 0 15 3383 26 41248 10264 3.7 26 7 2 8 25% 10488 83121 16007 55%
c - 15.88 25 294 0 16 3384 26 41472 9352 3.7 26 7 2 8 25% 10493 83121 16007 55%
c - 16.77 25 288 0 17 3706 26 45475 11394 3.7 26 7 2 8 25% 10579 83121 16007 55%
c - 17.62 25 297 0 18 3979 26 49599 13422 3.6 25 7 2 7 25% 10651 83121 16007 55%
c s 18.12 25 291 0 18 4149 25 52125 15594 3.6 25 7 2 7 25% 10689 80911 16007 55%
c e 18.24 25 291 0 18 4149 25 52125 15594 3.6 25 7 2 7 25% 9922 82387 15401 53%
c 2 18.25 25 291 0 18 4149 25 52125 15594 3.6 25 7 2 7 25% 9921 82387 15401 53%
c s 18.25 25 291 0 18 4149 25 52125 15594 3.6 25 7 2 7 25% 9923 82013 15401 53%
c e 18.27 25 291 0 18 4149 25 52125 15594 3.6 25 7 2 7 25% 9813 82175 15350 53%
c ^ 18.27 25 291 0 18 4149 25 52125 15594 3.6 25 7 2 7 25% 9813 82175 15350 53%
c - 18.73 25 289 0 19 4309 25 53841 14098 3.6 25 7 2 7 25% 9832 82175 15350 53%
c - 19.56 25 282 0 20 4602 25 58200 15943 3.5 25 7 2 7 25% 9895 82175 15350 53%
c d 19.78 25 282 0 20 4694 25 58876 16451 3.6 25 7 2 7 25% 9829 82175 15310 53%
c
c  seconds   switched     rate         size/glue tier1    binary         remaining
c         MB   reductions   conflicts        size  tier2     irredundant
c           level   restarts      redundant    glue   trail         variables
c
c u 19.88 25 282 0 20 4694 25 58876 13893 3.6 25 7 2 7 25% 9855 82175 15310 53%
c v 19.97 25 282 0 20 4694 25 58876 12375 3.6 25 7 2 7 25% 9859 82175 15310 53%
c w 20.04 25 282 0 20 4694 25 58876 12372 3.6 25 7 2 7 25% 9859 82175 15310 53%
c x 20.14 25 282 0 20 4694 25 58876 12370 3.6 25 7 2 7 25% 9859 81490 15310 53%
c = 20.49 25 282 0 20 4694 25 58876 12370 3.6 25 7 2 7 25% 10947 81486 14766 51%
c d 20.50 25 282 0 20 4694 25 58876 11899 3.6 25 7 2 7 25% 9774 81486 14763 51%
c t 20.53 25 282 0 20 4694 25 58876 11899 3.6 25 7 2 7 25% 9758 81486 14763 51%
c f 20.59 25 282 0 20 4694 25 58876 11899 3.6 25 7 2 7 25% 9772 81427 14771 51%
c c 20.66 25 282 0 20 4694 25 58876 11875 3.6 25 7 2 7 25% 9815 81251 14748 51%
c d 20.67 25 282 0 20 4694 25 58876 11875 3.6 25 7 2 7 25% 9769 81251 14748 51%
c u 20.74 25 282 0 20 4694 25 58876 11143 3.6 25 7 2 7 25% 9771 81251 14748 51%
c v 20.79 25 282 0 20 4694 25 58876 10876 3.6 25 7 2 7 25% 9771 81251 14748 51%
c w 20.89 25 282 0 20 4694 25 58876 10851 3.6 25 7 2 7 25% 9771 81251 14748 51%
c x 21.02 25 282 0 20 4694 25 58876 10850 3.6 25 7 2 7 25% 9773 77240 14748 51%
c = 21.39 25 282 0 20 4694 25 58876 10850 3.6 25 7 2 7 25% 11121 77240 14074 49%
c d 21.40 25 282 0 20 4694 25 58876 10572 3.6 25 7 2 7 25% 9713 77240 14074 49%
c t 21.41 25 282 0 20 4694 25 58876 10572 3.6 25 7 2 7 25% 9711 77240 14074 49%
c f 21.45 25 282 0 20 4694 25 58876 10572 3.6 25 7 2 7 25% 9715 77226 14076 49%
c - 22.02 25 274 0 21 4917 25 62672 12519 3.5 24 7 2 7 24% 9761 77226 14076 49%
c - 23.00 25 269 0 22 5356 25 67254 14967 3.5 24 7 2 7 24% 9804 77225 14076 49%
c
c  seconds   switched     rate         size/glue tier1    binary         remaining
c         MB   reductions   conflicts        size  tier2     irredundant
c           level   restarts      redundant    glue   trail         variables
c
c o 23.61 25 270 0 22 5595 25 70230 17474 3.5 24 7 2 7 24% 9857 77225 14076 49%
c - 24.47 25 267 0 23 5937 25 71944 16944 3.5 25 7 2 6 25% 9868 77225 14076 49%
c - 25.53 25 262 0 24 6397 25 76740 18682 3.5 25 7 2 6 25% 9938 77225 14076 49%
c c 26.37 25 257 0 24 6737 25 79941 21293 3.5 25 7 2 6 24% 10091 76218 13912 48%
c d 26.38 25 257 0 24 6737 25 79941 20668 3.5 25 7 2 6 24% 9763 76218 13912 48%
c u 26.49 25 257 0 24 6737 25 79941 17268 3.5 25 7 2 6 24% 9805 76218 13912 48%
c v 26.59 25 257 0 24 6737 25 79941 15333 3.5 25 7 2 6 24% 9815 76218 13912 48%
c w 26.69 25 257 0 24 6737 25 79941 15332 3.5 25 7 2 6 24% 9815 76218 13912 48%
c x 26.81 25 257 0 24 6737 25 79941 15332 3.5 25 7 2 6 24% 9816 74603 13912 48%
c d 26.90 25 257 0 24 6737 25 79941 15293 3.5 25 7 2 6 24% 9776 74603 13892 48%
c t 26.92 25 257 0 24 6737 25 79941 15293 3.5 25 7 2 6 24% 9765 74603 13892 48%
c f 26.94 25 257 0 24 6737 25 79941 15293 3.5 25 7 2 6 24% 9769 74589 13894 48%
c c 27.01 25 257 0 24 6737 25 79941 15248 3.5 25 7 2 6 24% 9780 74541 13888 48%
c d 27.02 25 257 0 24 6737 25 79941 15248 3.5 25 7 2 6 24% 9768 74541 13888 48%
c u 27.11 25 257 0 24 6737 25 79941 14447 3.5 25 7 2 6 24% 9781 74541 13888 48%
c v 27.17 25 257 0 24 6737 25 79941 14043 3.5 25 7 2 6 24% 9782 74541 13888 48%
c w 27.35 25 257 0 24 6737 25 79941 14025 3.5 25 7 2 6 24% 9782 74541 13888 48%
c x 27.45 25 257 0 24 6737 25 79941 14024 3.5 25 7 2 6 24% 9782 74161 13888 48%
c d 27.46 25 257 0 24 6737 25 79941 14019 3.5 25 7 2 6 24% 9768 74161 13881 48%
c t 27.48 25 257 0 24 6737 25 79941 14019 3.5 25 7 2 6 24% 9766 74161 13881 48%
c
c  seconds   switched     rate         size/glue tier1    binary         remaining
c         MB   reductions   conflicts        size  tier2     irredundant
c           level   restarts      redundant    glue   trail         variables
c
c - 28.02 25 253 0 25 6917 25 81638 13870 3.4 25 7 2 6 25% 9775 74161 13881 48%
c - 29.29 25 247 0 26 7459 25 86638 16360 3.4 25 7 2 6 25% 9827 74161 13881 48%
c - 30.32 25 245 0 27 7860 25 91738 18587 3.4 25 7 2 6 25% 9894 74160 13881 48%
c s 31.51 25 240 0 27 8320 25 95785 22206 3.4 25 8 2 6 25% 9941 71515 13881 48%
c e 31.65 25 240 0 27 8320 25 95785 22206 3.4 25 8 2 6 25% 6927 78947 12250 42%
c 2 31.65 25 240 0 27 8320 25 95785 22206 3.4 25 8 2 6 25% 6921 78947 12250 42%
c s 31.67 25 240 0 27 8320 25 95785 22206 3.4 25 8 2 6 25% 6923 78479 12250 42%
c e 31.69 25 240 0 27 8320 25 95785 22206 3.4 25 8 2 6 25% 6902 78531 12231 42%
c ^ 31.69 25 240 0 27 8320 25 95785 22206 3.4 25 8 2 6 25% 6902 78531 12231 42%
c - 31.89 27 239 0 28 8391 25 96934 14682 3.4 25 7 1 6 25% 6912 78531 12231 42%
c - 33.22 28 231 0 29 8960 25 102226 16286 3.3 25 8 1 6 25% 6963 78531 12231 42%
c d 33.63 28 231 0 29 9141 24 104567 18038 3.3 24 8 1 6 25% 6902 78531 12187 42%
c u 33.70 28 231 0 29 9141 24 104567 16028 3.3 24 8 1 6 25% 6927 78531 12187 42%
c v 33.81 28 231 0 29 9141 24 104567 13294 3.3 24 8 1 6 25% 6934 78531 12187 42%
c w 33.97 28 231 0 29 9141 24 104567 13135 3.3 24 8 1 6 25% 6934 78531 12187 42%
c x 34.10 28 231 0 29 9141 24 104567 13129 3.3 24 8 1 6 25% 6935 78250 12187 42%
c = 34.68 28 231 0 29 9141 24 104567 13129 3.3 24 8 1 6 25% 7379 78212 11962 41%
c d 34.69 28 231 0 29 9141 24 104567 12815 3.3 24 8 1 6 25% 6863 78212 11962 41%
c t 34.71 28 231 0 29 9141 24 104567 12815 3.3 24 8 1 6 25% 6830 78212 11962 41%
c f 34.80 28 231 0 29 9141 24 104567 12815 3.3 24 8 1 6 25% 6837 78176 11965 41%
c
c  seconds   switched     rate          size/glue tier1    binary         remaining
c         MB   reductions   conflicts         size  tier2     irredundant
c           level   restarts       redundant    glue   trail         variables
c
c c 34.85 28 231 0 29 9141 24 104567 12786 3.3 24 8 1 6 25% 6857 78072 11952 41%
c d 34.86 28 231 0 29 9141 24 104567 12786 3.3 24 8 1 6 25% 6831 78072 11952 41%
c u 34.91 28 231 0 29 9141 24 104567 12142 3.3 24 8 1 6 25% 6836 78072 11952 41%
c v 34.97 28 231 0 29 9141 24 104567 11402 3.3 24 8 1 6 25% 6838 78072 11952 41%
c w 35.10 28 231 0 29 9141 24 104567 11307 3.3 24 8 1 6 25% 6838 78072 11952 41%
c x 35.33 28 231 0 29 9141 24 104567 11301 3.3 24 8 1 6 25% 6841 75200 11952 41%
c = 35.78 28 231 0 29 9141 24 104567 11301 3.3 24 8 1 6 25% 6933 75188 11904 41%
c d 35.79 28 231 0 29 9141 24 104567 11264 3.3 24 8 1 6 25% 6826 75188 11904 41%
c t 35.79 28 231 0 29 9141 24 104567 11264 3.3 24 8 1 6 25% 6818 75188 11904 41%
c - 36.33 28 227 0 30 9430 24 107611 11879 3.2 24 8 1 6 25% 6827 75188 11904 41%
c o 36.76 28 225 0 30 9647 24 110239 14200 3.2 24 8 1 6 25% 6842 75188 11904 41%
c - 37.37 28 223 0 31 9999 24 113089 14280 3.2 24 8 1 6 25% 6846 75188 11904 41%
c - 38.68 28 218 0 32 10592 24 118656 16336 3.2 25 8 1 6 26% 6861 75184 11904 41%
c - 40.50 28 213 0 33 11249 24 124312 17914 3.2 26 8 1 6 26% 6893 75183 11904 41%
c - 42.08 28 207 0 34 11822 24 130056 19369 3.2 26 8 1 5 26% 6927 75181 11904 41%
c c 42.92 30 206 0 34 12117 24 132831 21880 3.2 26 8 1 5 26% 6948 74971 11858 41%
c d 42.92 30 206 0 34 12117 24 132831 21443 3.2 26 8 1 5 26% 6856 74971 11858 41%
c u 43.02 30 206 0 34 12117 24 132831 18675 3.2 26 8 1 5 26% 6866 74971 11858 41%
c v 43.14 30 206 0 34 12117 24 132831 15629 3.2 26 8 1 5 26% 6873 74971 11858 41%
c w 43.42 30 206 0 34 12117 24 132831 15578 3.2 26 8 1 5 26% 6873 74971 11858 41%
c
c  seconds   switched      rate          size/glue tier1    binary         remaining
c         MB   reductions    conflicts         size  tier2     irredundant
c           level   restarts        redundant    glue   trail         variables
c
c x 43.55 30 206 0 34 12117 24 132831 15574 3.2 26 8 1 5 26% 6873 74830 11858 41%
c = 44.27 30 206 0 34 12117 24 132831 15574 3.2 26 8 1 5 26% 6897 74830 11846 41%
c d 44.28 30 206 0 34 12117 24 132831 15525 3.2 26 8 1 5 26% 6859 74830 11846 41%
c t 44.29 30 206 0 34 12117 24 132831 15525 3.2 26 8 1 5 26% 6841 74830 11846 41%
c u 44.43 30 206 0 34 12117 24 132831 14708 3.2 26 8 1 5 26% 6845 74830 11846 41%
c v 44.50 30 206 0 34 12117 24 132831 13992 3.2 26 8 1 5 26% 6846 74830 11846 41%
c w 44.89 30 206 0 34 12117 24 132831 13436 3.2 26 8 1 5 26% 6849 74830 11846 41%
c = 45.62 30 206 0 34 12117 24 132831 13436 3.2 26 8 1 5 26% 6857 74820 11841 41%
c d 45.63 30 206 0 34 12117 24 132831 13424 3.2 26 8 1 5 26% 6848 74820 11841 41%
c t 45.64 30 206 0 34 12117 24 132831 13424 3.2 26 8 1 5 26% 6846 74820 11841 41%
c - 46.31 30 204 0 35 12366 24 135886 13842 3.2 26 8 1 5 26% 6852 74820 11841 41%
c - 47.80 30 202 0 36 12882 24 141804 16637 3.2 27 8 1 5 27% 6868 74817 11841 41%
c i 48.07 30 202 0 36 12992 24 142839 17600 3.2 27 8 1 5 27% 6870 74817 11840 41%
c - 49.18 30 199 0 37 13406 24 147805 18779 3.2 27 8 1 5 27% 6884 74816 11840 41%
c i 50.30 30 196 0 37 13834 24 151987 22684 3.2 27 8 1 5 27% 6897 74816 11839 41%
c i 50.73 30 196 0 37 13997 24 153130 23784 3.2 27 8 1 5 27% 6901 74816 11838 41%
c - 51.16 30 195 0 38 14141 24 153888 20373 3.2 27 8 1 5 27% 6896 74815 11838 41%
c i 51.25 30 194 0 38 14168 24 154595 20962 3.2 27 8 1 5 27% 6907 74815 11835 41%
c i 51.55 30 194 0 38 14284 24 155721 22011 3.2 27 8 1 5 27% 6917 74811 11834 41%
c 2 52.10 30 193 0 38 14473 24 157862 23959 3.2 27 8 1 5 27% 6923 74810 11833 41%
c
c  seconds   switched      rate          size/glue tier1    binary         remaining
c         MB   reductions    conflicts         size  tier2     irredundant
c           level   restarts        redundant    glue   trail         variables
c
c s 52.11 30 193 0 38 14473 24 157862 23959 3.2 27 8 1 5 27% 6923 74466 11833 41%
c e 52.27 30 193 0 38 14473 24 157862 23959 3.2 27 8 1 5 27% 3958 86809 10214 35%
c s 52.31 30 193 0 38 14473 24 157862 23959 3.2 27 8 1 5 27% 3959 86282 10214 35%
c e 52.34 30 193 0 38 14473 24 157862 23959 3.2 27 8 1 5 27% 3898 86602 10159 35%
c ^ 52.34 30 193 0 38 14473 24 157862 23959 3.2 27 8 1 5 27% 3898 86602 10159 35%
c - 52.85 30 192 0 39 14652 23 160052 16594 3.2 27 9 1 5 28% 3896 86602 10159 35%
c o 52.96 30 192 0 39 14689 23 160239 16777 3.2 27 9 1 5 28% 3896 86602 10159 35%
c i 53.60 30 189 0 39 14921 23 163096 19383 3.2 27 9 1 5 27% 3900 86601 10158 35%
c u 54.09 30 188 0 39 15071 23 164826 18505 3.2 27 9 1 5 27% 3921 86586 10158 35%
c v 54.23 30 188 0 39 15071 23 164826 15644 3.2 27 9 1 5 27% 3922 86586 10158 35%
c w 54.55 30 188 0 39 15071 23 164826 15618 3.2 27 9 1 5 27% 3922 86586 10158 35%
c x 54.75 30 188 0 39 15071 23 164826 15614 3.2 27 9 1 5 27% 3922 86077 10158 35%
c d 55.55 30 188 0 39 15071 23 164826 15614 3.2 27 9 1 5 27% 3920 86077 10157 35%
c t 55.57 30 188 0 39 15071 23 164826 15614 3.2 27 9 1 5 27% 3896 86077 10157 35%
c f 55.70 30 188 0 39 15071 23 164826 15614 3.2 27 9 1 5 27% 3931 85267 10192 35%
c u 55.83 30 188 0 39 15071 23 164826 14900 3.2 27 9 1 5 27% 3938 85267 10191 35%
c v 55.91 30 188 0 39 15071 23 164826 14329 3.2 27 9 1 5 27% 3938 85267 10191 35%
c w 56.24 30 188 0 39 15071 23 164826 13875 3.2 27 9 1 5 27% 3938 85267 10191 35%
c x 56.39 30 188 0 39 15071 23 164826 13875 3.2 27 9 1 5 27% 3938 85266 10191 35%
c d 56.39 30 188 0 39 15071 23 164826 13875 3.2 27 9 1 5 27% 3936 85266 10190 35%
c
c  seconds   switched      rate          size/glue tier1    binary         remaining
c         MB   reductions    conflicts         size  tier2     irredundant
c           level   restarts        redundant    glue   trail         variables
c
c t 56.41 30 188 0 39 15071 23 164826 13875 3.2 27 9 1 5 27% 3931 85266 10190 35%
c - 56.79 30 187 0 40 15197 23 166296 12743 3.2 27 9 1 5 28% 3929 85266 10190 35%
c - 58.32 30 186 0 41 15808 23 172622 15620 3.1 27 9 1 5 28% 3937 85261 10190 35%
c i 58.38 30 186 0 41 15824 23 173027 16002 3.1 27 9 1 5 28% 3938 85261 10189 35%
c i 58.64 30 185 0 41 15921 23 174423 17290 3.1 27 9 1 5 28% 3943 85261 10188 35%
c - 59.63 30 183 0 42 16330 23 179026 17853 3.1 27 9 1 5 28% 3946 85256 10188 35%
c i 59.94 30 182 0 42 16448 23 180121 18884 3.1 27 9 1 5 28% 3951 85256 10187 35%
c i 60.94 30 179 0 42 16804 22 184309 22799 3.1 27 9 1 5 28% 3958 85253 10186 35%
c - 61.22 30 178 0 43 16906 22 185506 19578 3.1 27 9 1 5 28% 3953 85253 10186 35%
c - 63.10 30 175 0 44 17546 22 192063 21091 3.0 27 9 1 5 28% 3956 85253 10186 35%
c i 63.15 30 174 0 44 17564 22 192284 21297 3.0 27 9 1 5 28% 3956 85253 10184 35%
c i 63.72 30 173 0 44 17768 22 194897 23723 3.0 27 9 1 5 28% 3965 85252 10183 35%
c i 63.94 30 172 0 44 17852 22 195764 24526 3.0 27 9 1 5 28% 3970 85252 10182 35%
c i 64.37 30 171 0 44 18007 22 197332 25998 3.0 27 9 1 5 28% 3974 85252 10181 35%
c i 64.47 30 171 0 44 18030 22 198281 26822 3.0 27 9 1 5 28% 3985 85249 10178 35%
c - 64.54 30 170 0 45 18052 22 198698 21923 3.0 27 9 1 5 28% 3963 85248 10178 35%
c i 64.64 30 170 0 45 18083 22 198985 22179 3.0 27 9 1 5 28% 3967 85248 10177 35%
c d 65.02 30 169 0 45 18214 21 200618 23651 3.0 27 9 1 5 28% 3979 85082 10176 35%
c d 65.03 30 169 0 45 18214 21 200618 23650 3.0 27 9 1 5 28% 3967 85082 10170 35%
c u 65.13 30 169 0 45 18214 21 200618 21008 3.0 27 9 1 5 28% 4018 85082 10165 35%
c
c  seconds   switched      rate          size/glue tier1    binary         remaining
c         MB   reductions    conflicts         size  tier2     irredundant
c           level   restarts        redundant    glue   trail         variables
c
c v 65.31 30 169 0 45 18214 21 200618 16651 3.0 27 9 1 5 28% 4022 85082 10165 35%
c w 65.55 30 169 0 45 18214 21 200618 16139 3.0 27 9 1 5 28% 4021 85082 10164 35%
c d 66.41 30 169 0 45 18214 21 200618 16112 3.0 27 9 1 5 28% 4027 85000 10162 35%
c d 66.41 30 169 0 45 18214 21 200618 16112 3.0 27 9 1 5 28% 4016 85000 10157 35%
c t 66.42 30 169 0 45 18214 21 200618 16112 3.0 27 9 1 5 28% 3999 85000 10157 35%
c u 66.52 30 169 0 45 18214 21 200618 15377 3.0 27 9 1 5 28% 4010 85000 10156 35%
c v 66.62 30 169 0 45 18214 21 200618 14592 3.0 27 9 1 5 28% 4011 85000 10156 35%
c w 66.81 30 169 0 45 18214 21 200618 14436 3.0 27 9 1 5 28% 4011 85000 10156 35%
c x 67.04 30 169 0 45 18214 21 200618 14387 3.0 27 9 1 5 28% 4027 83483 10156 35%
c d 67.05 30 169 0 45 18214 21 200618 14387 3.0 27 9 1 5 28% 4024 83483 10155 35%
c t 67.06 30 169 0 45 18214 21 200618 14387 3.0 27 9 1 5 28% 4010 83483 10155 35%
c i 67.08 30 169 0 45 18214 21 200618 14387 3.0 27 9 1 5 28% 4010 83483 10155 35%
c i 67.37 30 169 0 45 18305 21 201811 15487 3.0 27 9 1 5 28% 4016 83483 10153 35%
c i 67.85 30 168 0 45 18449 21 203799 17367 2.9 27 9 1 5 28% 4018 83481 10151 35%
c i 67.89 30 168 0 45 18462 21 204027 17578 2.9 27 9 1 5 28% 4020 83481 10149 35%
c i 67.91 30 168 0 45 18468 21 204108 17654 2.9 27 9 1 5 28% 4022 83481 10148 35%
c i 68.04 30 167 0 45 18524 21 205278 18705 2.9 27 9 1 5 28% 4033 83479 10146 35%
c i 68.04 30 167 0 45 18527 21 205344 18765 2.9 27 9 1 5 28% 4034 83479 10145 35%
c - 68.06 30 166 0 46 18536 21 205408 15258 2.9 27 9 1 5 28% 3947 83476 10145 35%
c i 68.07 30 166 0 46 18541 21 205919 15683 2.9 27 9 1 5 28% 3948 83476 10144 35%
c
c  seconds   switched      rate          size/glue tier1    binary         remaining
c         MB   reductions    conflicts         size  tier2     irredundant
c           level   restarts        redundant    glue   trail         variables
c
c i 68.07 30 166 0 46 18542 21 205949 15708 2.9 27 9 1 5 28% 3948 83476 10143 35%
c i 68.10 30 166 0 46 18554 21 206082 15832 2.9 27 9 1 5 28% 3949 83476 10142 35%
c i 68.12 30 165 0 46 18558 21 206533 16244 2.9 26 9 1 5 28% 3951 83474 10141 35%
c i 68.25 30 164 0 46 18629 21 208086 17690 2.9 26 9 1 5 28% 3955 83470 10140 35%
c i 68.29 30 164 0 46 18644 21 208546 18096 2.9 26 9 1 5 28% 3956 83470 10139 35%
c i 68.35 30 162 0 46 18680 20 209982 19348 2.9 26 9 1 5 27% 3970 83468 10138 35%
c i 68.36 30 160 0 46 18681 20 210764 19979 2.9 26 9 1 5 27% 3983 83467 10137 35%
c i 68.37 30 161 0 46 18682 20 210807 20012 2.9 26 9 1 5 27% 3985 83467 10136 35%
c i 68.37 30 160 0 46 18684 20 210988 20181 2.9 26 9 1 5 27% 3985 83467 10135 35%
c i 68.42 30 159 0 46 18698 20 212180 21251 2.9 26 9 1 5 27% 3986 83467 10134 35%
c - 68.43 30 159 0 47 18698 20 212192 16802 2.9 26 9 1 5 27% 3946 83467 10134 35%
c i 68.43 30 158 0 47 18698 20 212553 17084 2.9 26 9 1 5 27% 3948 83466 10133 35%
c i 68.43 30 158 0 47 18698 20 212693 17174 2.9 26 9 1 5 27% 3956 83466 10120 35%
c i 68.43 30 158 0 47 18698 20 212712 17183 2.9 26 9 1 5 27% 3959 83466 10118 35%
c i 68.43 30 158 0 47 18698 20 212725 17184 2.9 26 9 1 5 27% 3961 83466 10117 35%
c i 68.43 30 158 0 47 18698 20 212727 17184 2.9 26 9 1 5 27% 3962 83466 10116 35%
c } 68.43 30 158 0 47 18698 20 212734 17185 2.9 26 9 1 5 27% 3964 83466 10094 35%
c 0 68.43 30 158 0 47 18698 20 212734 17185 2.9 26 9 1 5 27% 3964 83466 10094 35%
c
c ---- [ result ] ------------------------------------------------------------
c
s UNSATISFIABLE
c
c ---- [ profiling ] ---------------------------------------------------------
c
c          49.34   72.10 %  search
c          49.34   72.10 %  focused
c          18.68   27.29 %  simplify
c          17.83   26.06 %  probe
c           7.92   11.58 %  vivify
c           6.97   10.18 %  sweep
c           1.06    1.55 %  factor
c           1.05    1.54 %  eliminate
c           0.81    1.18 %  congruence
c           0.78    1.14 %  substitute
c           0.37    0.54 %  preprocess
c           0.32    0.46 %  reduce
c           0.20    0.29 %  transitive
c           0.19    0.28 %  subsume
c           0.15    0.23 %  fastel
c           0.09    0.14 %  backbone
c           0.03    0.04 %  lucky
c           0.02    0.03 %  parse
c =============================================
c          68.43  100.00 %  total
c
c ---- [ statistics ] --------------------------------------------------------
c
c chronological:                         7050                3 %  conflicts
c conflicts:                           212734             3108.58 per second
c congruent:                             2533                9 %  variables
c decisions:                          4465387               20.99 per conflict
c eliminated:                           15963               55 %  variables
c factored:                              6133               21 %  variables
c fast_eliminated:                       8964               56 %  eliminated
c fast_strengthened:                      209                9 %  per strengthened
c fast_subsumed:                          136                1 %  per subsumed
c iterations:                              39                0 %  variables
c propagations:                     184360674          2693978    per second
c reductions:                              47             4526    interval
c reordered:                                6            35456    interval
c restarts:                             18698               11    interval
c strengthened:                          2285                0 %  checks
c substituted:                           8858               31 %  variables
c subsumed:                             13897                0 %  checks
c switched:                                 0                0    interval
c vivified:                             95363               12 %  checks
c
c ---- [ glue usage ] --------------------------------------------------------
c
c focused glue 1 used 357250 clauses 60.51% accumulated 60.51% tier1
c focused glue 2 used 103442 clauses 17.52% accumulated 78.03%
c focused glue 3 used  35656 clauses  6.04% accumulated 84.07%
c focused glue 4 used  21944 clauses  3.72% accumulated 87.78%
c focused glue 5 used  14791 clauses  2.51% accumulated 90.29% tier2
c
c ---- [ resources ] ---------------------------------------------------------
c
c maximum-resident-set-size:         31809536 bytes         30 MB
c process-time:                          1m 8s              68.43 seconds
c
c ---- [ shutting down ] -----------------------------------------------------
c
c exit 20
